
Gurobi 10.0.1 (linux64) logging started Sun Nov 26 15:49:08 2023

Set parameter LogFile to value "ArtificialInstance/ExperimentV2/S3T5K2/AdRo/gurobiSpRo27.txt"
Gurobi Optimizer version 10.0.1 build v10.0.1rc0 (linux64)

CPU model: AMD EPYC 7H12 64-Core Processor, instruction set [SSE2|AVX|AVX2]
Thread count: 128 physical cores, 128 logical processors, using up to 32 threads

Academic license 656792 - for non-commercial use only - registered to b.___@student.vu.nl
Optimize a model with 11299 rows, 10573 columns and 41105 nonzeros
Model fingerprint: 0xfe6ed761
Variable types: 1 continuous, 10572 integer (10572 binary)
Coefficient statistics:
  Matrix range     [1e+00, 4e+01]
  Objective range  [1e+00, 2e+01]
  Bounds range     [1e+00, 1e+00]
  RHS range        [1e+00, 1e+00]
Presolve removed 4807 rows and 4432 columns
Presolve time: 0.14s
Presolved: 6492 rows, 6141 columns, 24103 nonzeros
Variable types: 1 continuous, 6140 integer (6140 binary)

Root relaxation: objective 8.897851e+01, 1694 iterations, 0.05 seconds (0.03 work units)

    Nodes    |    Current Node    |     Objective Bounds      |     Work
 Expl Unexpl |  Obj  Depth IntInf | Incumbent    BestBd   Gap | It/Node Time

     0     0   88.97851    0   25          -   88.97851      -     -    0s
H    0     0                     106.7636493   88.97851  16.7%     -    0s
H    0     0                      88.9785142   88.97851  0.00%     -    0s

Explored 1 nodes (3158 simplex iterations) in 0.30 seconds (0.22 work units)
Thread count was 32 (of 128 available processors)

Solution count 2: 88.9785 106.764 

Optimal solution found (tolerance 1.00e-04)
Best objective 8.897851423054e+01, best bound 8.897851423054e+01, gap 0.0000%
